132 5
10 10 10 10 10 

0 0 0 0 0 0 1 2 
0 0 0 0 0 0 2 3 7 
1 0 0 1 0 0 2 5 4 
2 0 0 3 0 0 2 8 6 
5 0 0 2 0 0 1 6 
4 0 0 3 0 0 2 10 9 
6 0 0 1 0 0 2 10 9 
8 0 0 2 0 0 1 9 
1 0 0 4 0 0 2 12 11 
1 0 0 2 0 0 2 12 11 
8 0 0 6 0 0 1 13 
1 0 0 1 0 0 1 13 
0 0 0 0 0 0 1 14 
0 0 0 0 0 0 2 15 17 
6 1 0 0 0 0 2 20 16 
6 3 0 0 0 0 2 21 19 
6 2 0 0 0 0 1 18 
1 2 0 0 0 0 1 19 
7 4 0 0 0 0 2 24 22 
10 2 0 0 0 0 2 24 22 
1 3 0 0 0 0 1 22 
9 2 0 0 0 0 1 23 
3 3 0 0 0 0 1 25 
6 3 0 0 0 0 1 25 
0 0 0 0 0 0 1 26 
0 0 0 0 0 0 3 27 30 32 
8 0 0 1 0 0 2 31 28 
6 0 0 3 0 0 2 35 29 
7 0 0 5 0 0 2 36 33 
1 0 0 2 0 0 2 35 33 
5 0 0 1 0 0 2 35 34 
6 0 0 5 0 0 1 33 
4 0 0 2 0 0 1 34 
10 0 0 1 0 0 1 37 
8 0 0 4 0 0 1 37 
8 0 0 1 0 0 1 37 
0 0 0 0 0 0 2 38 50 
0 0 0 0 0 0 5 39 42 44 48 100 
9 0 0 0 1 0 1 40 
7 0 0 0 5 0 2 47 41 
3 0 0 0 2 0 2 46 43 
1 0 0 0 2 0 2 46 45 
9 0 0 0 3 0 1 45 
4 0 0 0 2 0 1 47 
6 0 0 0 4 0 1 49 
1 0 0 0 1 0 1 49 
1 0 0 0 2 0 1 49 
2 0 0 0 3 0 1 49 
0 0 0 0 0 0 5 72 84 96 108 120 
0 0 0 0 0 0 7 51 65 66 67 68 69 70 
1 1 1 0 0 0 3 64 63 52 
2 5 3 0 0 0 2 62 53 
10 1 1 0 0 0 2 61 54 
6 4 4 0 0 0 1 55 
4 2 4 0 0 0 1 56 
8 3 1 0 0 0 1 57 
8 1 1 0 0 0 1 58 
10 1 4 0 0 0 1 59 
10 3 1 0 0 0 1 60 
3 4 3 0 0 0 1 71 
8 4 4 0 0 0 1 71 
9 2 7 0 0 0 1 71 
2 3 3 0 0 0 1 71 
4 1 1 0 0 0 1 71 
5 3 1 0 0 0 1 71 
1 2 2 0 0 0 1 71 
4 2 1 0 0 0 1 71 
7 2 4 0 0 0 1 71 
2 5 2 0 0 0 1 71 
4 1 2 0 0 0 1 71 
0 0 0 0 0 0 1 132 
0 0 0 0 0 0 4 73 80 81 82 
5 0 0 0 0 1 3 79 78 74 
8 0 0 0 0 3 1 75 
8 0 0 0 0 1 1 76 
3 0 0 0 0 5 1 77 
5 0 0 0 0 1 1 83 
2 0 0 0 0 3 1 83 
8 0 0 0 0 4 1 83 
1 0 0 0 0 2 1 83 
1 0 0 0 0 3 1 83 
7 0 0 0 0 2 1 83 
0 0 0 0 0 0 1 132 
0 0 0 0 0 0 4 85 89 92 94 
4 1 0 0 0 0 3 91 87 86 
6 2 0 0 0 0 1 88 
1 2 0 0 0 0 1 88 
8 3 0 0 0 0 1 90 
7 3 0 0 0 0 1 90 
2 6 0 0 0 0 1 93 
6 3 0 0 0 0 1 93 
9 2 0 0 0 0 1 93 
4 1 0 0 0 0 1 95 
7 2 0 0 0 0 1 95 
0 0 0 0 0 0 1 132 
0 0 0 0 0 0 3 97 98 100 
8 1 0 0 0 0 2 101 99 
7 2 0 0 0 0 1 99 
3 3 0 0 0 0 3 106 104 102 
2 4 0 0 0 0 2 106 101 
4 3 0 0 0 0 2 104 103 
9 4 0 0 0 0 1 103 
1 1 0 0 0 0 1 105 
3 2 0 0 0 0 1 105 
10 2 0 0 0 0 1 107 
9 3 0 0 0 0 1 107 
0 0 0 0 0 0 1 132 
0 0 0 0 0 0 2 109 118 
2 0 0 0 0 1 5 117 116 115 112 110 
2 0 0 0 0 1 1 111 
7 0 0 0 0 4 1 113 
8 0 0 0 0 4 1 113 
4 0 0 0 0 5 1 114 
2 0 0 0 0 1 1 119 
8 0 0 0 0 2 1 119 
4 0 0 0 0 3 1 119 
4 0 0 0 0 3 1 119 
1 0 0 0 0 1 1 119 
0 0 0 0 0 0 1 132 
0 0 0 0 0 0 2 121 122 
4 0 1 0 0 0 2 130 123 
7 0 2 0 0 0 2 130 124 
7 0 1 0 0 0 1 124 
3 0 3 0 0 0 4 129 128 127 125 
6 0 4 0 0 0 1 126 
9 0 6 0 0 0 1 131 
7 0 2 0 0 0 1 131 
7 0 2 0 0 0 1 131 
7 0 2 0 0 0 1 131 
8 0 2 0 0 0 1 131 
0 0 0 0 0 0 1 132 
0 0 0 0 0 0 0 
